NAME          DCAP_2_4_3_500_SS123
ROWS
 N  OBJ
 L  CON1
 L  CON2
 L  CON3
 L  CON4
 L  CON5
 L  CON6
 L  CON7
 L  CON8
 L  CON9
 L  CON10
 L  CON11
 L  CON12
 E  CON13
 E  CON14
 E  CON15
 E  CON16
 E  CON17
 E  CON18
 E  CON19
 E  CON20
 E  CON21
 E  CON22
 E  CON23
 E  CON24
COLUMNS
    x[1,1]    OBJ       6.180167      CON1      1.000000    
    x[1,1]    CON7      -1.000000     CON8      -1.000000   
    x[1,1]    CON9      -1.000000   
    x[1,2]    OBJ       6.563535      CON2      1.000000    
    x[1,2]    CON8      -1.000000     CON9      -1.000000   
    x[1,3]    OBJ       7.443064      CON3      1.000000    
    x[1,3]    CON9      -1.000000   
    x[2,1]    OBJ       6.732585      CON4      1.000000    
    x[2,1]    CON10     -1.000000     CON11     -1.000000   
    x[2,1]    CON12     -1.000000   
    x[2,2]    OBJ       5.039546      CON5      1.000000    
    x[2,2]    CON11     -1.000000     CON12     -1.000000   
    x[2,3]    OBJ       6.054841      CON6      1.000000    
    x[2,3]    CON12     -1.000000   
    MARKER    'MARKER'                'INTORG'
    u[1,1]    OBJ       48.076654     CON1      -1.000000   
    u[1,2]    OBJ       20.066487     CON2      -1.000000   
    u[1,3]    OBJ       32.230043     CON3      -1.000000   
    u[2,1]    OBJ       49.996186     CON4      -1.000000   
    u[2,2]    OBJ       49.466655     CON5      -1.000000   
    u[2,3]    OBJ       27.484319     CON6      -1.000000   
    y[1,1,1]  OBJ       6.119203      CON7      0.564260    
    y[1,1,1]  CON13     1.000000    
    y[1,1,2]  OBJ       7.925281      CON8      0.954999    
    y[1,1,2]  CON14     1.000000    
    y[1,1,3]  OBJ       9.189714      CON9      0.739771    
    y[1,1,3]  CON15     1.000000    
    y[1,2,1]  OBJ       8.805724      CON7      1.127144    
    y[1,2,1]  CON16     1.000000    
    y[1,2,2]  OBJ       8.815807      CON8      0.648026    
    y[1,2,2]  CON17     1.000000    
    y[1,2,3]  OBJ       5.966831      CON9      1.110729    
    y[1,2,3]  CON18     1.000000    
    y[1,3,1]  OBJ       6.068830      CON7      1.094296    
    y[1,3,1]  CON19     1.000000    
    y[1,3,2]  OBJ       5.382757      CON8      1.231846    
    y[1,3,2]  CON20     1.000000    
    y[1,3,3]  OBJ       5.490050      CON9      0.828490    
    y[1,3,3]  CON21     1.000000    
    y[1,4,1]  OBJ       5.704590      CON7      0.990904    
    y[1,4,1]  CON22     1.000000    
    y[1,4,2]  OBJ       8.586301      CON8      1.200374    
    y[1,4,2]  CON23     1.000000    
    y[1,4,3]  OBJ       9.512108      CON9      0.823310    
    y[1,4,3]  CON24     1.000000    
    y[2,1,1]  OBJ       7.983741      CON10     0.564260    
    y[2,1,1]  CON13     1.000000    
    y[2,1,2]  OBJ       9.087568      CON11     0.954999    
    y[2,1,2]  CON14     1.000000    
    y[2,1,3]  OBJ       6.250671      CON12     0.739771    
    y[2,1,3]  CON15     1.000000    
    y[2,2,1]  OBJ       6.495751      CON10     1.127144    
    y[2,2,1]  CON16     1.000000    
    y[2,2,2]  OBJ       6.028218      CON11     0.648026    
    y[2,2,2]  CON17     1.000000    
    y[2,2,3]  OBJ       7.877642      CON12     1.110729    
    y[2,2,3]  CON18     1.000000    
    y[2,3,1]  OBJ       7.948210      CON10     1.094296    
    y[2,3,1]  CON19     1.000000    
    y[2,3,2]  OBJ       7.920465      CON11     1.231846    
    y[2,3,2]  CON20     1.000000    
    y[2,3,3]  OBJ       5.153394      CON12     0.828490    
    y[2,3,3]  CON21     1.000000    
    y[2,4,1]  OBJ       7.699398      CON10     0.990904    
    y[2,4,1]  CON22     1.000000    
    y[2,4,2]  OBJ       9.031270      CON11     1.200374    
    y[2,4,2]  CON23     1.000000    
    y[2,4,3]  OBJ       5.161828      CON12     0.823310    
    y[2,4,3]  CON24     1.000000    
    z[1,1]    OBJ       726.621020    CON13     1.000000    
    z[1,2]    OBJ       601.783375    CON14     1.000000    
    z[1,3]    OBJ       568.950666    CON15     1.000000    
    z[2,1]    OBJ       713.421270    CON16     1.000000    
    z[2,2]    OBJ       728.486546    CON17     1.000000    
    z[2,3]    OBJ       546.262918    CON18     1.000000    
    z[3,1]    OBJ       978.322395    CON19     1.000000    
    z[3,2]    OBJ       969.988751    CON20     1.000000    
    z[3,3]    OBJ       595.244252    CON21     1.000000    
    z[4,1]    OBJ       890.019843    CON22     1.000000    
    z[4,2]    OBJ       912.824341    CON23     1.000000    
    z[4,3]    OBJ       767.780039    CON24     1.000000    
    MARKER    'MARKER'                 'INTEND'
RHS
    RHS       CON1      -0.000000     CON2      -0.000000   
    RHS       CON3      -0.000000     CON4      -0.000000   
    RHS       CON5      -0.000000     CON6      -0.000000   
    RHS       CON7      -0.000000     CON8      -0.000000   
    RHS       CON9      -0.000000     CON10     -0.000000   
    RHS       CON11     -0.000000     CON12     -0.000000   
    RHS       CON13     1.000000      CON14     1.000000    
    RHS       CON15     1.000000      CON16     1.000000    
    RHS       CON17     1.000000      CON18     1.000000    
    RHS       CON19     1.000000      CON20     1.000000    
    RHS       CON21     1.000000      CON22     1.000000    
    RHS       CON23     1.000000      CON24     1.000000    
BOUNDS
 BV BOUND     u[1,1]  
 BV BOUND     u[1,2]  
 BV BOUND     u[1,3]  
 BV BOUND     u[2,1]  
 BV BOUND     u[2,2]  
 BV BOUND     u[2,3]  
 BV BOUND     y[1,1,1]
 BV BOUND     y[1,1,2]
 BV BOUND     y[1,1,3]
 BV BOUND     y[1,2,1]
 BV BOUND     y[1,2,2]
 BV BOUND     y[1,2,3]
 BV BOUND     y[1,3,1]
 BV BOUND     y[1,3,2]
 BV BOUND     y[1,3,3]
 BV BOUND     y[1,4,1]
 BV BOUND     y[1,4,2]
 BV BOUND     y[1,4,3]
 BV BOUND     y[2,1,1]
 BV BOUND     y[2,1,2]
 BV BOUND     y[2,1,3]
 BV BOUND     y[2,2,1]
 BV BOUND     y[2,2,2]
 BV BOUND     y[2,2,3]
 BV BOUND     y[2,3,1]
 BV BOUND     y[2,3,2]
 BV BOUND     y[2,3,3]
 BV BOUND     y[2,4,1]
 BV BOUND     y[2,4,2]
 BV BOUND     y[2,4,3]
 BV BOUND     z[1,1]  
 BV BOUND     z[1,2]  
 BV BOUND     z[1,3]  
 BV BOUND     z[2,1]  
 BV BOUND     z[2,2]  
 BV BOUND     z[2,3]  
 BV BOUND     z[3,1]  
 BV BOUND     z[3,2]  
 BV BOUND     z[3,3]  
 BV BOUND     z[4,1]  
 BV BOUND     z[4,2]  
 BV BOUND     z[4,3]  
ENDATA
